p cnf 14 64
-4 -11 -12 0
-4 -6 -14 0
-2 -11 14 0
-1 7 -9 0
4 13 -14 0
-3 -9 -12 0
3 -4 -14 0
1 -7 12 0
3 -7 14 0
1 5 10 0
-3 5 9 0
-5 6 -12 0
-6 -12 -13 0
6 -7 13 0
2 -7 8 0
5 -11 -13 0
-6 -12 13 0
-5 -6 9 0
4 5 -8 0
4 -9 12 0
9 -13 -14 0
-4 -13 -14 0
-5 -8 -14 0
5 6 8 0
1 -7 11 0
3 -6 13 0
2 -9 -12 0
5 11 -12 0
-6 -12 -14 0
5 -6 -7 0
-3 5 8 0
1 6 14 0
1 -3 -8 0
4 -8 -13 0
3 -7 -8 0
-5 6 -8 0
5 6 7 0
-2 -12 13 0
3 7 12 0
-5 -7 -9 0
4 6 -9 0
1 -2 7 0
-1 -11 12 0
-6 -10 14 0
-3 -11 -14 0
-1 -4 -14 0
-3 -11 -13 0
1 -9 -13 0
3 -4 -5 0
-6 9 -13 0
-1 2 -11 0
-1 -2 8 0
1 -8 -13 0
-5 7 -9 0
1 7 11 0
-4 -6 9 0
3 -11 -13 0
6 11 -12 0
-4 5 9 0
-1 2 14 0
-1 9 -13 0
5 -7 -12 0
1 5 -11 0
5 -11 -12 0
